# 65189
param n := 25;
param s := 1;
set E :=  (0,12) (0,19) (1,2) (1,3) (1,22) (2,6) (2,15) (3,5) (3,14) (3,20) (3,24) (4,7) (4,20) (5,13) (5,17) (5,21) (6,13) (7,18) (7,21) (8,12) (8,18) (8,19) (9,16) (9,23) (10,12) (10,24) (11,15) (13,14) (14,23) (15,19) (16,17) (17,22);
